# This is an output file which can also be recylced for next calculation.
# The basic layout remains the same.
# There are a number of extra keywords like 'set_vacuum_level' and
# constrain_relaxation which can be safely ignored for our purpose.
# The same is true for the hessian appended at the end of the file.
# The output as generated begins now:
# ========================================================================
# This is the geometry file that corresponds to the current relaxation step.
# If you do not want this file to be written, set the "write_restart_geometry" flag to .false.
# 
  set_vacuum_level        29.250157
lattice_vector     18.00223154      0.00000000      0.00000000
lattice_vector      0.00000000     17.81758839      0.00000000
lattice_vector      0.00000000      0.00000000     45.49911465
atom       1.28587368      0.74239952      0.00000000 Cu
  constrain_relaxation .true.
atom       3.85762104      0.74239952      0.00000000 Cu
  constrain_relaxation .true.
atom       6.42936841      0.74239952      0.00000000 Cu
  constrain_relaxation .true.
atom       9.00111577      0.74239952      0.00000000 Cu
  constrain_relaxation .true.
atom      11.57286313      0.74239952      0.00000000 Cu
  constrain_relaxation .true.
atom      14.14461050      0.74239952      0.00000000 Cu
  constrain_relaxation .true.
atom      16.71635786      0.74239952      0.00000000 Cu
  constrain_relaxation .true.
atom       0.00000000      2.96959806      0.00000000 Cu
  constrain_relaxation .true.
atom       2.57174736      2.96959806      0.00000000 Cu
  constrain_relaxation .true.
atom       5.14349473      2.96959806      0.00000000 Cu
  constrain_relaxation .true.
atom       7.71524209      2.96959806      0.00000000 Cu
  constrain_relaxation .true.
atom      10.28698945      2.96959806      0.00000000 Cu
  constrain_relaxation .true.
atom      12.85873682      2.96959806      0.00000000 Cu
  constrain_relaxation .true.
atom      15.43048418      2.96959806      0.00000000 Cu
  constrain_relaxation .true.
atom       1.28587368      5.19679661      0.00000000 Cu
  constrain_relaxation .true.
atom       3.85762104      5.19679661      0.00000000 Cu
  constrain_relaxation .true.
atom       6.42936841      5.19679661      0.00000000 Cu
  constrain_relaxation .true.
atom       9.00111577      5.19679661      0.00000000 Cu
  constrain_relaxation .true.
atom      11.57286313      5.19679661      0.00000000 Cu
  constrain_relaxation .true.
atom      14.14461050      5.19679661      0.00000000 Cu
  constrain_relaxation .true.
atom      16.71635786      5.19679661      0.00000000 Cu
  constrain_relaxation .true.
atom       0.00000000      7.42399516      0.00000000 Cu
  constrain_relaxation .true.
atom       2.57174736      7.42399516      0.00000000 Cu
  constrain_relaxation .true.
atom       5.14349473      7.42399516      0.00000000 Cu
  constrain_relaxation .true.
atom       7.71524209      7.42399516      0.00000000 Cu
  constrain_relaxation .true.
atom      10.28698945      7.42399516      0.00000000 Cu
  constrain_relaxation .true.
atom      12.85873682      7.42399516      0.00000000 Cu
  constrain_relaxation .true.
atom      15.43048418      7.42399516      0.00000000 Cu
  constrain_relaxation .true.
atom       1.28587368      9.65119371      0.00000000 Cu
  constrain_relaxation .true.
atom       3.85762104      9.65119371      0.00000000 Cu
  constrain_relaxation .true.
atom       6.42936841      9.65119371      0.00000000 Cu
  constrain_relaxation .true.
atom       9.00111577      9.65119371      0.00000000 Cu
  constrain_relaxation .true.
atom      11.57286313      9.65119371      0.00000000 Cu
  constrain_relaxation .true.
atom      14.14461050      9.65119371      0.00000000 Cu
  constrain_relaxation .true.
atom      16.71635786      9.65119371      0.00000000 Cu
  constrain_relaxation .true.
atom       0.00000000     11.87839226      0.00000000 Cu
  constrain_relaxation .true.
atom       2.57174736     11.87839226      0.00000000 Cu
  constrain_relaxation .true.
atom       5.14349473     11.87839226      0.00000000 Cu
  constrain_relaxation .true.
atom       7.71524209     11.87839226      0.00000000 Cu
  constrain_relaxation .true.
atom      10.28698945     11.87839226      0.00000000 Cu
  constrain_relaxation .true.
atom      12.85873682     11.87839226      0.00000000 Cu
  constrain_relaxation .true.
atom      15.43048418     11.87839226      0.00000000 Cu
  constrain_relaxation .true.
atom       1.28587368     14.10559081      0.00000000 Cu
  constrain_relaxation .true.
atom       3.85762104     14.10559081      0.00000000 Cu
  constrain_relaxation .true.
atom       6.42936841     14.10559081      0.00000000 Cu
  constrain_relaxation .true.
atom       9.00111577     14.10559081      0.00000000 Cu
  constrain_relaxation .true.
atom      11.57286313     14.10559081      0.00000000 Cu
  constrain_relaxation .true.
atom      14.14461050     14.10559081      0.00000000 Cu
  constrain_relaxation .true.
atom      16.71635786     14.10559081      0.00000000 Cu
  constrain_relaxation .true.
atom       0.00000000     16.33278936      0.00000000 Cu
  constrain_relaxation .true.
atom       2.57174736     16.33278936      0.00000000 Cu
  constrain_relaxation .true.
atom       5.14349473     16.33278936      0.00000000 Cu
  constrain_relaxation .true.
atom       7.71524209     16.33278936      0.00000000 Cu
  constrain_relaxation .true.
atom      10.28698945     16.33278936      0.00000000 Cu
  constrain_relaxation .true.
atom      12.85873682     16.33278936      0.00000000 Cu
  constrain_relaxation .true.
atom      15.43048418     16.33278936      0.00000000 Cu
  constrain_relaxation .true.
atom       0.00000000      1.48479903      2.09982293 Cu
  constrain_relaxation .true.
atom       2.57174736      1.48479903      2.09982293 Cu
  constrain_relaxation .true.
atom       5.14349473      1.48479903      2.09982293 Cu
  constrain_relaxation .true.
atom       7.71524209      1.48479903      2.09982293 Cu
  constrain_relaxation .true.
atom      10.28698945      1.48479903      2.09982293 Cu
  constrain_relaxation .true.
atom      12.85873682      1.48479903      2.09982293 Cu
  constrain_relaxation .true.
atom      15.43048418      1.48479903      2.09982293 Cu
  constrain_relaxation .true.
atom       1.28587368      3.71199758      2.09982293 Cu
  constrain_relaxation .true.
atom       3.85762104      3.71199758      2.09982293 Cu
  constrain_relaxation .true.
atom       6.42936841      3.71199758      2.09982293 Cu
  constrain_relaxation .true.
atom       9.00111577      3.71199758      2.09982293 Cu
  constrain_relaxation .true.
atom      11.57286313      3.71199758      2.09982293 Cu
  constrain_relaxation .true.
atom      14.14461050      3.71199758      2.09982293 Cu
  constrain_relaxation .true.
atom      16.71635786      3.71199758      2.09982293 Cu
  constrain_relaxation .true.
atom       0.00000000      5.93919613      2.09982293 Cu
  constrain_relaxation .true.
atom       2.57174736      5.93919613      2.09982293 Cu
  constrain_relaxation .true.
atom       5.14349473      5.93919613      2.09982293 Cu
  constrain_relaxation .true.
atom       7.71524209      5.93919613      2.09982293 Cu
  constrain_relaxation .true.
atom      10.28698945      5.93919613      2.09982293 Cu
  constrain_relaxation .true.
atom      12.85873682      5.93919613      2.09982293 Cu
  constrain_relaxation .true.
atom      15.43048418      5.93919613      2.09982293 Cu
  constrain_relaxation .true.
atom       1.28587368      8.16639468      2.09982293 Cu
  constrain_relaxation .true.
atom       3.85762104      8.16639468      2.09982293 Cu
  constrain_relaxation .true.
atom       6.42936841      8.16639468      2.09982293 Cu
  constrain_relaxation .true.
atom       9.00111577      8.16639468      2.09982293 Cu
  constrain_relaxation .true.
atom      11.57286313      8.16639468      2.09982293 Cu
  constrain_relaxation .true.
atom      14.14461050      8.16639468      2.09982293 Cu
  constrain_relaxation .true.
atom      16.71635786      8.16639468      2.09982293 Cu
  constrain_relaxation .true.
atom       0.00000000     10.39359323      2.09982293 Cu
  constrain_relaxation .true.
atom       2.57174736     10.39359323      2.09982293 Cu
  constrain_relaxation .true.
atom       5.14349473     10.39359323      2.09982293 Cu
  constrain_relaxation .true.
atom       7.71524209     10.39359323      2.09982293 Cu
  constrain_relaxation .true.
atom      10.28698945     10.39359323      2.09982293 Cu
  constrain_relaxation .true.
atom      12.85873682     10.39359323      2.09982293 Cu
  constrain_relaxation .true.
atom      15.43048418     10.39359323      2.09982293 Cu
  constrain_relaxation .true.
atom       1.28587368     12.62079178      2.09982293 Cu
  constrain_relaxation .true.
atom       3.85762104     12.62079178      2.09982293 Cu
  constrain_relaxation .true.
atom       6.42936841     12.62079178      2.09982293 Cu
  constrain_relaxation .true.
atom       9.00111577     12.62079178      2.09982293 Cu
  constrain_relaxation .true.
atom      11.57286313     12.62079178      2.09982293 Cu
  constrain_relaxation .true.
atom      14.14461050     12.62079178      2.09982293 Cu
  constrain_relaxation .true.
atom      16.71635786     12.62079178      2.09982293 Cu
  constrain_relaxation .true.
atom       0.00000000     14.84799032      2.09982293 Cu
  constrain_relaxation .true.
atom       2.57174736     14.84799032      2.09982293 Cu
  constrain_relaxation .true.
atom       5.14349473     14.84799032      2.09982293 Cu
  constrain_relaxation .true.
atom       7.71524209     14.84799032      2.09982293 Cu
  constrain_relaxation .true.
atom      10.28698945     14.84799032      2.09982293 Cu
  constrain_relaxation .true.
atom      12.85873682     14.84799032      2.09982293 Cu
  constrain_relaxation .true.
atom      15.43048418     14.84799032      2.09982293 Cu
  constrain_relaxation .true.
atom       1.28587368     17.07518887      2.09982293 Cu
  constrain_relaxation .true.
atom       3.85762104     17.07518887      2.09982293 Cu
  constrain_relaxation .true.
atom       6.42936841     17.07518887      2.09982293 Cu
  constrain_relaxation .true.
atom       9.00111577     17.07518887      2.09982293 Cu
  constrain_relaxation .true.
atom      11.57286313     17.07518887      2.09982293 Cu
  constrain_relaxation .true.
atom      14.14461050     17.07518887      2.09982293 Cu
  constrain_relaxation .true.
atom      16.71635786     17.07518887      2.09982293 Cu
  constrain_relaxation .true.
atom       0.00000000      0.00000000      4.19964586 Cu
  constrain_relaxation .true.
atom       2.57174736      0.00000000      4.19964586 Cu
  constrain_relaxation .true.
atom       5.14349473      0.00000000      4.19964586 Cu
  constrain_relaxation .true.
atom       7.71524209      0.00000000      4.19964586 Cu
  constrain_relaxation .true.
atom      10.28698945      0.00000000      4.19964586 Cu
  constrain_relaxation .true.
atom      12.85873682      0.00000000      4.19964586 Cu
  constrain_relaxation .true.
atom      15.43048418      0.00000000      4.19964586 Cu
  constrain_relaxation .true.
atom       1.28587368      2.22719855      4.19964586 Cu
  constrain_relaxation .true.
atom       3.85762104      2.22719855      4.19964586 Cu
  constrain_relaxation .true.
atom       6.42936841      2.22719855      4.19964586 Cu
  constrain_relaxation .true.
atom       9.00111577      2.22719855      4.19964586 Cu
  constrain_relaxation .true.
atom      11.57286313      2.22719855      4.19964586 Cu
  constrain_relaxation .true.
atom      14.14461050      2.22719855      4.19964586 Cu
  constrain_relaxation .true.
atom      16.71635786      2.22719855      4.19964586 Cu
  constrain_relaxation .true.
atom       0.00000000      4.45439710      4.19964586 Cu
  constrain_relaxation .true.
atom       2.57174736      4.45439710      4.19964586 Cu
  constrain_relaxation .true.
atom       5.14349473      4.45439710      4.19964586 Cu
  constrain_relaxation .true.
atom       7.71524209      4.45439710      4.19964586 Cu
  constrain_relaxation .true.
atom      10.28698945      4.45439710      4.19964586 Cu
  constrain_relaxation .true.
atom      12.85873682      4.45439710      4.19964586 Cu
  constrain_relaxation .true.
atom      15.43048418      4.45439710      4.19964586 Cu
  constrain_relaxation .true.
atom       1.28587368      6.68159565      4.19964586 Cu
  constrain_relaxation .true.
atom       3.85762104      6.68159565      4.19964586 Cu
  constrain_relaxation .true.
atom       6.42936841      6.68159565      4.19964586 Cu
  constrain_relaxation .true.
atom       9.00111577      6.68159565      4.19964586 Cu
  constrain_relaxation .true.
atom      11.57286313      6.68159565      4.19964586 Cu
  constrain_relaxation .true.
atom      14.14461050      6.68159565      4.19964586 Cu
  constrain_relaxation .true.
atom      16.71635786      6.68159565      4.19964586 Cu
  constrain_relaxation .true.
atom       0.00000000      8.90879419      4.19964586 Cu
  constrain_relaxation .true.
atom       2.57174736      8.90879419      4.19964586 Cu
  constrain_relaxation .true.
atom       5.14349473      8.90879419      4.19964586 Cu
  constrain_relaxation .true.
atom       7.71524209      8.90879419      4.19964586 Cu
  constrain_relaxation .true.
atom      10.28698945      8.90879419      4.19964586 Cu
  constrain_relaxation .true.
atom      12.85873682      8.90879419      4.19964586 Cu
  constrain_relaxation .true.
atom      15.43048418      8.90879419      4.19964586 Cu
  constrain_relaxation .true.
atom       1.28587368     11.13599274      4.19964586 Cu
  constrain_relaxation .true.
atom       3.85762104     11.13599274      4.19964586 Cu
  constrain_relaxation .true.
atom       6.42936841     11.13599274      4.19964586 Cu
  constrain_relaxation .true.
atom       9.00111577     11.13599274      4.19964586 Cu
  constrain_relaxation .true.
atom      11.57286313     11.13599274      4.19964586 Cu
  constrain_relaxation .true.
atom      14.14461050     11.13599274      4.19964586 Cu
  constrain_relaxation .true.
atom      16.71635786     11.13599274      4.19964586 Cu
  constrain_relaxation .true.
atom       0.00000000     13.36319129      4.19964586 Cu
  constrain_relaxation .true.
atom       2.57174736     13.36319129      4.19964586 Cu
  constrain_relaxation .true.
atom       5.14349473     13.36319129      4.19964586 Cu
  constrain_relaxation .true.
atom       7.71524209     13.36319129      4.19964586 Cu
  constrain_relaxation .true.
atom      10.28698945     13.36319129      4.19964586 Cu
  constrain_relaxation .true.
atom      12.85873682     13.36319129      4.19964586 Cu
  constrain_relaxation .true.
atom      15.43048418     13.36319129      4.19964586 Cu
  constrain_relaxation .true.
atom       1.28587368     15.59038984      4.19964586 Cu
  constrain_relaxation .true.
atom       3.85762104     15.59038984      4.19964586 Cu
  constrain_relaxation .true.
atom       6.42936841     15.59038984      4.19964586 Cu
  constrain_relaxation .true.
atom       9.00111577     15.59038984      4.19964586 Cu
  constrain_relaxation .true.
atom      11.57286313     15.59038984      4.19964586 Cu
  constrain_relaxation .true.
atom      14.14461050     15.59038984      4.19964586 Cu
  constrain_relaxation .true.
atom      16.71635786     15.59038984      4.19964586 Cu
  constrain_relaxation .true.
atom       1.28587368      0.74239952      6.29946879 Cu
  constrain_relaxation .true.
atom       3.85762104      0.74239952      6.29946879 Cu
  constrain_relaxation .true.
atom       6.42936841      0.74239952      6.29946879 Cu
  constrain_relaxation .true.
atom       9.00111577      0.74239952      6.29946879 Cu
  constrain_relaxation .true.
atom      11.57286313      0.74239952      6.29946879 Cu
  constrain_relaxation .true.
atom      14.14461050      0.74239952      6.29946879 Cu
  constrain_relaxation .true.
atom      16.71635786      0.74239952      6.29946879 Cu
  constrain_relaxation .true.
atom       0.00000000      2.96959806      6.29946879 Cu
  constrain_relaxation .true.
atom       2.57174736      2.96959806      6.29946879 Cu
  constrain_relaxation .true.
atom       5.14349473      2.96959806      6.29946879 Cu
  constrain_relaxation .true.
atom       7.71524209      2.96959806      6.29946879 Cu
  constrain_relaxation .true.
atom      10.28698945      2.96959806      6.29946879 Cu
  constrain_relaxation .true.
atom      12.85873682      2.96959806      6.29946879 Cu
  constrain_relaxation .true.
atom      15.43048418      2.96959806      6.29946879 Cu
  constrain_relaxation .true.
atom       1.28587368      5.19679661      6.29946879 Cu
  constrain_relaxation .true.
atom       3.85762104      5.19679661      6.29946879 Cu
  constrain_relaxation .true.
atom       6.42936841      5.19679661      6.29946879 Cu
  constrain_relaxation .true.
atom       9.00111577      5.19679661      6.29946879 Cu
  constrain_relaxation .true.
atom      11.57286313      5.19679661      6.29946879 Cu
  constrain_relaxation .true.
atom      14.14461050      5.19679661      6.29946879 Cu
  constrain_relaxation .true.
atom      16.71635786      5.19679661      6.29946879 Cu
  constrain_relaxation .true.
atom       0.00000000      7.42399516      6.29946879 Cu
  constrain_relaxation .true.
atom       2.57174736      7.42399516      6.29946879 Cu
  constrain_relaxation .true.
atom       5.14349473      7.42399516      6.29946879 Cu
  constrain_relaxation .true.
atom       7.71524209      7.42399516      6.29946879 Cu
  constrain_relaxation .true.
atom      10.28698945      7.42399516      6.29946879 Cu
  constrain_relaxation .true.
atom      12.85873682      7.42399516      6.29946879 Cu
  constrain_relaxation .true.
atom      15.43048418      7.42399516      6.29946879 Cu
  constrain_relaxation .true.
atom       1.28587368      9.65119371      6.29946879 Cu
  constrain_relaxation .true.
atom       3.85762104      9.65119371      6.29946879 Cu
  constrain_relaxation .true.
atom       6.42936841      9.65119371      6.29946879 Cu
  constrain_relaxation .true.
atom       9.00111577      9.65119371      6.29946879 Cu
  constrain_relaxation .true.
atom      11.57286313      9.65119371      6.29946879 Cu
  constrain_relaxation .true.
atom      14.14461050      9.65119371      6.29946879 Cu
  constrain_relaxation .true.
atom      16.71635786      9.65119371      6.29946879 Cu
  constrain_relaxation .true.
atom       0.00000000     11.87839226      6.29946879 Cu
  constrain_relaxation .true.
atom       2.57174736     11.87839226      6.29946879 Cu
  constrain_relaxation .true.
atom       5.14349473     11.87839226      6.29946879 Cu
  constrain_relaxation .true.
atom       7.71524209     11.87839226      6.29946879 Cu
  constrain_relaxation .true.
atom      10.28698945     11.87839226      6.29946879 Cu
  constrain_relaxation .true.
atom      12.85873682     11.87839226      6.29946879 Cu
  constrain_relaxation .true.
atom      15.43048418     11.87839226      6.29946879 Cu
  constrain_relaxation .true.
atom       1.28587368     14.10559081      6.29946879 Cu
  constrain_relaxation .true.
atom       3.85762104     14.10559081      6.29946879 Cu
  constrain_relaxation .true.
atom       6.42936841     14.10559081      6.29946879 Cu
  constrain_relaxation .true.
atom       9.00111577     14.10559081      6.29946879 Cu
  constrain_relaxation .true.
atom      11.57286313     14.10559081      6.29946879 Cu
  constrain_relaxation .true.
atom      14.14461050     14.10559081      6.29946879 Cu
  constrain_relaxation .true.
atom      16.71635786     14.10559081      6.29946879 Cu
  constrain_relaxation .true.
atom       0.00000000     16.33278936      6.29946879 Cu
  constrain_relaxation .true.
atom       2.57174736     16.33278936      6.29946879 Cu
  constrain_relaxation .true.
atom       5.14349473     16.33278936      6.29946879 Cu
  constrain_relaxation .true.
atom       7.71524209     16.33278936      6.29946879 Cu
  constrain_relaxation .true.
atom      10.28698945     16.33278936      6.29946879 Cu
  constrain_relaxation .true.
atom      12.85873682     16.33278936      6.29946879 Cu
  constrain_relaxation .true.
atom      15.43048418     16.33278936      6.29946879 Cu
  constrain_relaxation .true.
atom       0.00007130      1.48415677      8.38888736 Cu
atom       2.56933874      1.48404046      8.38883767 Cu
atom       5.13966402      1.48383932      8.38575248 Cu
atom       7.71435558      1.48290748      8.38468319 Cu
atom      10.28958684      1.48211969      8.38489423 Cu
atom      12.86312827      1.48238284      8.38664218 Cu
atom      15.43300522      1.48295155      8.38911873 Cu
atom       1.28332389      3.71070146      8.38874022 Cu
atom       3.84994179      3.70762342      8.38208408 Cu
atom       6.42840274      3.70849472      8.38853486 Cu
atom       9.00226399      3.71073347      8.39990649 Cu
atom      11.57623777      3.70726584      8.38973902 Cu
atom      14.15235933      3.70664131      8.38401811 Cu
atom      16.71891668      3.71016151      8.38896976 Cu
atom       0.00081398      5.93839165      8.38925282 Cu
atom       2.56479272      5.93679557      8.38277439 Cu
atom       5.13584848      5.93520614      8.38323514 Cu
atom       7.71103667      5.92853643      8.38716315 Cu
atom      10.29488593      5.92779611      8.38610603 Cu
atom      12.86965451      5.93340956      8.38383599 Cu
atom      15.43932113      5.93607005      8.38342175 Cu
atom       1.28402702      8.16611275      8.38638841 Cu
atom       3.85448679      8.16845614      8.38854166 Cu
atom       6.41834703      8.16649527      8.38609305 Cu
atom       9.00372235      8.16524793      8.36042170 Cu
atom      11.58786363      8.16592292      8.38573050 Cu
atom      14.15107003      8.16732602      8.38956152 Cu
atom      16.72132671      8.16584755      8.38655393 Cu
atom       0.00222516     10.39474288      8.38962540 Cu
atom       2.57003406     10.39584411      8.38433975 Cu
atom       5.14425657     10.39550932      8.39927472 Cu
atom       7.71006429     10.40336504      8.38588884 Cu
atom      10.29606790     10.40208790      8.38563618 Cu
atom      12.86297491     10.39373132      8.39917122 Cu
atom      15.43652029     10.39510313      8.38477154 Cu
atom       1.28775397     12.62273605      8.38947063 Cu
atom       3.85746661     12.62562828      8.38362680 Cu
atom       6.42851740     12.62439240      8.38821268 Cu
atom       9.00322790     12.63002028      8.38170405 Cu
atom      11.57805713     12.62346748      8.38723324 Cu
atom      14.14939204     12.62413062      8.38380556 Cu
atom      16.71936267     12.62233309      8.38948827 Cu
atom       0.00195874     14.84898136      8.38887135 Cu
atom       2.57350211     14.85034076      8.38897954 Cu
atom       5.14495030     14.85409124      8.38556789 Cu
atom       7.71589475     14.85816011      8.38210369 Cu
atom      10.28960130     14.85751613      8.38215083 Cu
atom      12.86068210     14.85241796      8.38582539 Cu
atom      15.43234432     14.84921166      8.38911831 Cu
atom       1.28627544     17.07574708      8.38854662 Cu
atom       3.85761348     17.07687718      8.38947887 Cu
atom       6.42904896     17.07898846      8.38925829 Cu
atom       9.00212811     17.07931395      8.38900416 Cu
atom      11.57511676     17.07770488      8.38950102 Cu
atom      14.14633561     17.07534261      8.38974432 Cu
atom      16.71781482     17.07508833      8.38859640 Cu
atom       0.00149648      0.00212587     10.46634236 Cu
atom       2.57175397      0.00244282     10.46704438 Cu
atom       5.14313837     -0.00034791     10.46822778 Cu
atom       7.71667065     -0.00292712     10.46931537 Cu
atom      10.28981071     -0.00389343     10.46973803 Cu
atom      12.86262012     -0.00224838     10.46897911 Cu
atom      15.43356512      0.00073332     10.46727435 Cu
atom       1.28553608      2.22939221     10.46703770 Cu
atom       3.85640438      2.22625358     10.46698789 Cu
atom       6.42755822      2.21460601     10.46013870 Cu
atom       9.00299940      2.21147060     10.46080501 Cu
atom      11.57653734      2.21432402     10.46247078 Cu
atom      14.14677153      2.22490997     10.46809305 Cu
atom      16.71722004      2.22856028     10.46722914 Cu
atom       0.00021175      4.45678165     10.46782362 Cu
atom       2.56895287      4.45527315     10.46815499 Cu
atom       5.12933038      4.44303857     10.44846923 Cu
atom       7.70791406      4.43700408     10.47299167 Cu
atom      10.29893440      4.43852876     10.47216657 Cu
atom      12.87345563      4.44360004     10.45481857 Cu
atom      15.43398802      4.45433925     10.46911919 Cu
atom       1.28491145      6.68496598     10.46846823 Cu
atom       3.84142967      6.67751315     10.45101782 Cu
atom       6.41515233      6.67313425     10.42901627 Cu
atom       9.00606045      6.68439429     10.40672048 Cu
atom      11.59266374      6.67391420     10.42953878 Cu
atom      14.16378063      6.67684904     10.45394587 Cu
atom      16.72013833      6.68453426     10.46883340 Cu
atom       0.00241386      8.91221965     10.46939750 Cu
atom       2.56235044      8.91624886     10.46131570 Cu
atom       5.12588727      8.91128410     10.47153803 Cu
atom       7.72141897      8.90505945     10.40424115 Cu
atom      10.28989116      8.90587120     10.40777855 Cu
atom      12.88119013      8.90989974     10.47439145 Cu
atom      15.44464101      8.91509328     10.46216797 Cu
atom       1.28642835     11.14072133     10.46932428 Cu
atom       3.84660835     11.14701171     10.45945109 Cu
atom       6.42174325     11.15290636     10.47392788 Cu
atom       9.00558218     11.15185312     10.42466493 Cu
atom      11.58780601     11.15202705     10.47073582 Cu
atom      14.16177196     11.14501065     10.46067819 Cu
atom      16.72221891     11.13992512     10.46949304 Cu
atom       0.00355463     13.36670073     10.46802375 Cu
atom       2.57189523     13.36855795     10.46828111 Cu
atom       5.13598151     13.37432785     10.45879054 Cu
atom       7.71539615     13.38264930     10.44538200 Cu
atom      10.29481785     13.38130459     10.44625462 Cu
atom      12.87320069     13.37160063     10.45939263 Cu
atom      15.43736896     13.36675583     10.46845085 Cu
atom       1.28775049     15.59377642     10.46677127 Cu
atom       3.85801465     15.59458760     10.46788584 Cu
atom       6.43001465     15.59309043     10.46795007 Cu
atom       9.00435668     15.59279985     10.46842649 Cu
atom      11.57848454     15.59135594     10.46812687 Cu
atom      14.15002626     15.59226393     10.46813395 Cu
atom      16.72029106     15.59274395     10.46679496 Cu
atom      10.23400256      8.93753128     13.29098538 C
atom      10.24672780      7.51195265     13.29553780 C
atom       9.01923759      6.78722942     13.27417248 C
atom       7.77790499      7.48793423     13.27008436 C
atom       7.76291628      8.91417768     13.27566722 C
atom       8.99216949      9.63752199     13.26837608 C
atom       8.98041101     11.06191468     13.22708683 C
atom      10.22069906     11.76035776     13.21501129 C
atom      11.42312221     11.08329291     13.25026170 C
atom      11.46289016      9.66165975     13.28819754 C
atom      12.68774490      8.93745186     13.27698308 C
atom      12.69762679      7.55763365     13.26714509 C
atom      11.48665238      6.81050005     13.28566327 C
atom      11.47211350      5.38773200     13.26414739 C
atom      10.28438246      4.68518760     13.24711993 C
atom       9.03265801      5.36170753     13.25389433 C
atom       7.79411260      4.66194415     13.22027473 C
atom       6.59224035      5.34213192     13.21745804 C
atom       6.54975872      6.76449550     13.24232641 C
atom       5.32473159      7.49070152     13.23871598 C
atom       5.31052043      8.87081170     13.25708940 C
atom       6.52255249      9.61598206     13.26570533 C
atom       6.53632456     11.03864890     13.21756975 C
atom       7.72786401     11.73702008     13.18765081 C
atom      10.21086144     12.85129483     13.18201499 H
atom      12.36155573     11.63781045     13.24681320 H
atom      13.62975852      9.48758240     13.26954321 H
atom      13.64760504      7.02223263     13.25802714 H
atom      12.42194063      4.85080635     13.26131810 H
atom      10.29774588      3.59548177     13.23502698 H
atom       7.80262025      3.57122701     13.21139999 H
atom       5.65480563      4.78588366     13.19568859 H
atom       4.38398598      6.93804023     13.22443977 H
atom       4.36000279      9.40344347     13.27956047 H
atom       5.58940838     11.57962074     13.22801844 H
atom       7.71676229     12.82738131     13.16072766 H
# 
# What follows is the current estimated Hessian matrix constructed by the BFGS algorithm.
# This is NOT the true Hessian matrix of the system.
# If you do not want this information here, switch it off using the "hessian_to_restart_geometry" keyword.
# 
trust_radius             1.4384299300
hessian_block              225     225           8.038259          -0.003583           0.001189          -0.003583           8.037609           0.000033           0.001189           0.000033           8.051801
hessian_block              225     226          -1.509957          -0.003041           0.001215          -0.003120          -0.023255          -0.000322           0.001140          -0.000457          -0.011684
hessian_block              225     227          -0.012781          -0.002475           0.001799           0.000333          -0.006981           0.000178           0.000846          -0.000130          -0.000369
hessian_block              225     228          -0.011751          -0.002446           0.000965           0.004658          -0.001677          -0.000050           0.001180          -0.000090          -0.001021